p cnf 966 2481
51 -699 -1 0
-51 699 0
-51 1 0
52 -51 -700 0
-52 51 0
-52 700 0
53 -701 -4 0
-53 701 0
-53 4 0
54 -53 -6 0
-54 53 0
-54 6 0
55 -702 -703 0
-55 702 0
-55 703 0
56 -704 -705 0
-56 704 0
-56 705 0
57 -56 -706 0
-57 56 0
-57 706 0
58 -707 -55 0
-58 707 0
-58 55 0
59 -10 -4 0
-59 10 0
-59 4 0
60 -59 -11 0
-60 59 0
-60 11 0
61 -708 -58 0
-61 708 0
-61 58 0
62 -709 -12 0
-62 709 0
-62 12 0
63 -62 -14 0
-63 62 0
-63 14 0
64 -710 -61 0
-64 710 0
-64 61 0
65 -15 -13 0
-65 15 0
-65 13 0
66 -65 -711 0
-66 65 0
-66 711 0
67 -712 -64 0
-67 712 0
-67 64 0
68 -713 -714 0
-68 713 0
-68 714 0
69 -68 -19 0
-69 68 0
-69 19 0
70 -715 -67 0
-70 715 0
-70 67 0
71 -716 -701 0
-71 716 0
-71 701 0
72 -71 -711 0
-72 71 0
-72 711 0
73 -717 -70 0
-73 717 0
-73 70 0
74 -718 -719 0
-74 718 0
-74 719 0
75 -74 -720 0
-75 74 0
-75 720 0
76 -721 -73 0
-76 721 0
-76 73 0
77 -25 -24 0
-77 25 0
-77 24 0
78 -77 -722 0
-78 77 0
-78 722 0
79 -723 -76 0
-79 723 0
-79 76 0
80 -22 -21 0
-80 22 0
-80 21 0
81 -80 -724 0
-81 80 0
-81 724 0
82 -725 -79 0
-82 725 0
-82 79 0
83 -704 -2 0
-83 704 0
-83 2 0
84 -83 -3 0
-84 83 0
-84 3 0
85 -726 -82 0
-85 726 0
-85 82 0
86 -727 -728 0
-86 727 0
-86 728 0
87 -86 -729 0
-87 86 0
-87 729 0
88 -730 -85 0
-88 730 0
-88 85 0
89 -31 -718 0
-89 31 0
-89 718 0
90 -89 -731 0
-90 89 0
-90 731 0
91 -732 -88 0
-91 732 0
-91 88 0
92 -733 -18 0
-92 733 0
-92 18 0
93 -92 -734 0
-93 92 0
-93 734 0
94 -735 -91 0
-94 735 0
-94 91 0
95 -736 -23 0
-95 736 0
-95 23 0
96 -95 -35 0
-96 95 0
-96 35 0
97 -737 -94 0
-97 737 0
-97 94 0
98 -34 -704 0
-98 34 0
-98 704 0
99 -98 -738 0
-99 98 0
-99 738 0
100 -739 -97 0
-100 739 0
-100 97 0
101 -740 -713 0
-101 740 0
-101 713 0
102 -101 -23 0
-102 101 0
-102 23 0
103 -741 -100 0
-103 741 0
-103 100 0
104 -38 -709 0
-104 38 0
-104 709 0
105 -104 -742 0
-105 104 0
-105 742 0
106 -743 -103 0
-106 743 0
-106 103 0
107 -40 -9 0
-107 40 0
-107 9 0
108 -107 -724 0
-108 107 0
-108 724 0
109 -744 -106 0
-109 744 0
-109 106 0
110 -40 -719 0
-110 40 0
-110 719 0
111 -110 -30 0
-111 110 0
-111 30 0
112 -745 -109 0
-112 745 0
-112 109 0
113 -740 -4 0
-113 740 0
-113 4 0
114 -113 -746 0
-114 113 0
-114 746 0
115 -747 -112 0
-115 747 0
-115 112 0
116 -21 -716 0
-116 21 0
-116 716 0
117 -116 -709 0
-117 116 0
-117 709 0
118 -748 -115 0
-118 748 0
-118 115 0
119 -714 -705 0
-119 714 0
-119 705 0
120 -119 -699 0
-120 119 0
-120 699 0
121 -749 -118 0
-121 749 0
-121 118 0
122 -35 -750 0
-122 35 0
-122 750 0
123 -122 -751 0
-123 122 0
-123 751 0
124 -752 -121 0
-124 752 0
-124 121 0
125 -27 -4 0
-125 27 0
-125 4 0
126 -125 -753 0
-126 125 0
-126 753 0
127 -754 -124 0
-127 754 0
-127 124 0
128 -27 -15 0
-128 27 0
-128 15 0
129 -128 -19 0
-129 128 0
-129 19 0
130 -755 -127 0
-130 755 0
-130 127 0
131 -9 -7 0
-131 9 0
-131 7 0
132 -131 -41 0
-132 131 0
-132 41 0
133 -756 -130 0
-133 756 0
-133 130 0
134 -23 -714 0
-134 23 0
-134 714 0
135 -134 -757 0
-135 134 0
-135 757 0
136 -758 -133 0
-136 758 0
-136 133 0
137 -25 -704 0
-137 25 0
-137 704 0
138 -137 -759 0
-138 137 0
-138 759 0
139 -760 -136 0
-139 760 0
-139 136 0
140 -706 -6 0
-140 706 0
-140 6 0
141 -140 -718 0
-141 140 0
-141 718 0
142 -761 -139 0
-142 761 0
-142 139 0
143 -734 -762 0
-143 734 0
-143 762 0
144 -143 -763 0
-144 143 0
-144 763 0
145 -764 -142 0
-145 764 0
-145 142 0
146 -759 -738 0
-146 759 0
-146 738 0
147 -146 -765 0
-147 146 0
-147 765 0
148 -766 -145 0
-148 766 0
-148 145 0
149 -31 -3 0
-149 31 0
-149 3 0
150 -149 -16 0
-150 149 0
-150 16 0
151 -767 -148 0
-151 767 0
-151 148 0
152 -757 -18 0
-152 757 0
-152 18 0
153 -152 -751 0
-153 152 0
-153 751 0
154 -768 -151 0
-154 768 0
-154 151 0
155 -728 -6 0
-155 728 0
-155 6 0
156 -155 -13 0
-156 155 0
-156 13 0
157 -769 -154 0
-157 769 0
-157 154 0
158 -770 -716 0
-158 770 0
-158 716 0
159 -158 -36 0
-159 158 0
-159 36 0
160 -771 -157 0
-160 771 0
-160 157 0
161 -26 -704 0
-161 26 0
-161 704 0
162 -161 -45 0
-162 161 0
-162 45 0
163 -772 -160 0
-163 772 0
-163 160 0
164 -44 -37 0
-164 44 0
-164 37 0
165 -164 -30 0
-165 164 0
-165 30 0
166 -773 -163 0
-166 773 0
-166 163 0
167 -774 -770 0
-167 774 0
-167 770 0
168 -167 -763 0
-168 167 0
-168 763 0
169 -775 -166 0
-169 775 0
-169 166 0
170 -24 -750 0
-170 24 0
-170 750 0
171 -170 -776 0
-171 170 0
-171 776 0
172 -777 -169 0
-172 777 0
-172 169 0
173 -26 -699 0
-173 26 0
-173 699 0
174 -173 -709 0
-174 173 0
-174 709 0
175 -778 -172 0
-175 778 0
-175 172 0
176 -15 -6 0
-176 15 0
-176 6 0
177 -176 -742 0
-177 176 0
-177 742 0
178 -779 -175 0
-178 779 0
-178 175 0
179 -44 -751 0
-179 44 0
-179 751 0
180 -179 -47 0
-180 179 0
-180 47 0
181 -780 -178 0
-181 780 0
-181 178 0
182 -45 -33 0
-182 45 0
-182 33 0
183 -182 -763 0
-183 182 0
-183 763 0
184 -781 -181 0
-184 781 0
-184 181 0
185 -720 -719 0
-185 720 0
-185 719 0
186 -185 -731 0
-186 185 0
-186 731 0
187 -782 -184 0
-187 782 0
-187 184 0
188 -42 -11 0
-188 42 0
-188 11 0
189 -188 -32 0
-189 188 0
-189 32 0
190 -783 -187 0
-190 783 0
-190 187 0
191 -728 -24 0
-191 728 0
-191 24 0
192 -191 -16 0
-192 191 0
-192 16 0
193 -784 -190 0
-193 784 0
-193 190 0
194 -753 -785 0
-194 753 0
-194 785 0
195 -194 -11 0
-195 194 0
-195 11 0
196 -786 -193 0
-196 786 0
-196 193 0
197 -39 -701 0
-197 39 0
-197 701 0
198 -197 -711 0
-198 197 0
-198 711 0
199 -787 -196 0
-199 787 0
-199 196 0
200 -48 -10 0
-200 48 0
-200 10 0
201 -200 -742 0
-201 200 0
-201 742 0
202 -788 -199 0
-202 788 0
-202 199 0
203 -763 -6 0
-203 763 0
-203 6 0
204 -203 -16 0
-204 203 0
-204 16 0
205 -789 -202 0
-205 789 0
-205 202 0
206 -719 -706 0
-206 719 0
-206 706 0
207 -206 -23 0
-207 206 0
-207 23 0
208 -790 -205 0
-208 790 0
-208 205 0
209 -759 -2 0
-209 759 0
-209 2 0
210 -209 -731 0
-210 209 0
-210 731 0
211 -791 -208 0
-211 791 0
-211 208 0
212 -736 -10 0
-212 736 0
-212 10 0
213 -212 -48 0
-213 212 0
-213 48 0
214 -792 -211 0
-214 792 0
-214 211 0
215 -40 -727 0
-215 40 0
-215 727 0
216 -215 -776 0
-216 215 0
-216 776 0
217 -793 -214 0
-217 793 0
-217 214 0
218 -734 -794 0
-218 734 0
-218 794 0
219 -218 -46 0
-219 218 0
-219 46 0
220 -795 -217 0
-220 795 0
-220 217 0
221 -44 -706 0
-221 44 0
-221 706 0
222 -221 -734 0
-222 221 0
-222 734 0
223 -796 -220 0
-223 796 0
-223 220 0
224 -797 -705 0
-224 797 0
-224 705 0
225 -224 -731 0
-225 224 0
-225 731 0
226 -798 -223 0
-226 798 0
-226 223 0
227 -25 -699 0
-227 25 0
-227 699 0
228 -227 -734 0
-228 227 0
-228 734 0
229 -799 -226 0
-229 799 0
-229 226 0
230 -720 -19 0
-230 720 0
-230 19 0
231 -230 -751 0
-231 230 0
-231 751 0
232 -800 -229 0
-232 800 0
-232 229 0
233 -740 -701 0
-233 740 0
-233 701 0
234 -233 -727 0
-234 233 0
-234 727 0
235 -801 -232 0
-235 801 0
-235 232 0
236 -36 -709 0
-236 36 0
-236 709 0
237 -236 -47 0
-237 236 0
-237 47 0
238 -802 -235 0
-238 802 0
-238 235 0
239 -33 -28 0
-239 33 0
-239 28 0
240 -239 -43 0
-240 239 0
-240 43 0
241 -803 -238 0
-241 803 0
-241 238 0
242 -37 -705 0
-242 37 0
-242 705 0
243 -242 -701 0
-243 242 0
-243 701 0
244 -804 -241 0
-244 804 0
-244 241 0
245 -10 -699 0
-245 10 0
-245 699 0
246 -245 -718 0
-246 245 0
-246 718 0
247 -805 -244 0
-247 805 0
-247 244 0
248 -31 -25 0
-248 31 0
-248 25 0
249 -248 -42 0
-249 248 0
-249 42 0
250 -806 -247 0
-250 806 0
-250 247 0
251 -734 -718 0
-251 734 0
-251 718 0
252 -251 -36 0
-252 251 0
-252 36 0
253 -807 -250 0
-253 807 0
-253 250 0
254 -28 -7 0
-254 28 0
-254 7 0
255 -254 -700 0
-255 254 0
-255 700 0
256 -808 -253 0
-256 808 0
-256 253 0
257 -56 -728 0
-257 56 0
-257 728 0
258 -809 -256 0
-258 809 0
-258 256 0
259 -810 -797 0
-259 810 0
-259 797 0
260 -259 -774 0
-260 259 0
-260 774 0
261 -811 -258 0
-261 811 0
-261 258 0
262 -23 -746 0
-262 23 0
-262 746 0
263 -262 -727 0
-263 262 0
-263 727 0
264 -812 -261 0
-264 812 0
-264 261 0
265 -759 -705 0
-265 759 0
-265 705 0
266 -265 -36 0
-266 265 0
-266 36 0
267 -813 -264 0
-267 813 0
-267 264 0
268 -34 -757 0
-268 34 0
-268 757 0
269 -268 -711 0
-269 268 0
-269 711 0
270 -814 -267 0
-270 814 0
-270 267 0
271 -24 -714 0
-271 24 0
-271 714 0
272 -271 -13 0
-272 271 0
-272 13 0
273 -815 -270 0
-273 815 0
-273 270 0
274 -31 -701 0
-274 31 0
-274 701 0
275 -274 -45 0
-275 274 0
-275 45 0
276 -816 -273 0
-276 816 0
-276 273 0
277 -770 -31 0
-277 770 0
-277 31 0
278 -277 -729 0
-278 277 0
-278 729 0
279 -817 -276 0
-279 817 0
-279 276 0
280 -41 -733 0
-280 41 0
-280 733 0
281 -280 -19 0
-281 280 0
-281 19 0
282 -818 -279 0
-282 818 0
-282 279 0
283 -794 -704 0
-283 794 0
-283 704 0
284 -283 -33 0
-284 283 0
-284 33 0
285 -819 -282 0
-285 819 0
-285 282 0
286 -820 -821 0
-286 820 0
-286 821 0
287 -286 -722 0
-287 286 0
-287 722 0
288 -822 -285 0
-288 822 0
-288 285 0
289 -21 -1 0
-289 21 0
-289 1 0
290 -289 -700 0
-290 289 0
-290 700 0
291 -823 -288 0
-291 823 0
-291 288 0
292 -763 -724 0
-292 763 0
-292 724 0
293 -292 -11 0
-293 292 0
-293 11 0
294 -824 -291 0
-294 824 0
-294 291 0
295 -734 -821 0
-295 734 0
-295 821 0
296 -295 -3 0
-296 295 0
-296 3 0
297 -825 -294 0
-297 825 0
-297 294 0
298 -826 -701 0
-298 826 0
-298 701 0
299 -298 -38 0
-299 298 0
-299 38 0
300 -827 -297 0
-300 827 0
-300 297 0
301 -729 -27 0
-301 729 0
-301 27 0
302 -301 -742 0
-302 301 0
-302 742 0
303 -828 -300 0
-303 828 0
-303 300 0
304 -719 -776 0
-304 719 0
-304 776 0
305 -304 -742 0
-305 304 0
-305 742 0
306 -829 -303 0
-306 829 0
-306 303 0
307 -37 -731 0
-307 37 0
-307 731 0
308 -307 -711 0
-308 307 0
-308 711 0
309 -830 -306 0
-309 830 0
-309 306 0
310 -785 -750 0
-310 785 0
-310 750 0
311 -310 -36 0
-311 310 0
-311 36 0
312 -831 -309 0
-312 831 0
-312 309 0
313 -31 -746 0
-313 31 0
-313 746 0
314 -313 -48 0
-314 313 0
-314 48 0
315 -832 -312 0
-315 832 0
-315 312 0
316 -719 -704 0
-316 719 0
-316 704 0
317 -316 -826 0
-317 316 0
-317 826 0
318 -833 -315 0
-318 833 0
-318 315 0
319 -49 -762 0
-319 49 0
-319 762 0
320 -319 -9 0
-320 319 0
-320 9 0
321 -834 -318 0
-321 834 0
-321 318 0
322 -15 -821 0
-322 15 0
-322 821 0
323 -322 -48 0
-323 322 0
-323 48 0
324 -835 -321 0
-324 835 0
-324 321 0
325 -836 -837 0
-325 836 0
-325 837 0
326 -325 -724 0
-326 325 0
-326 724 0
327 -838 -324 0
-327 838 0
-327 324 0
328 -797 -35 0
-328 797 0
-328 35 0
329 -328 -738 0
-329 328 0
-329 738 0
330 -839 -327 0
-330 839 0
-330 327 0
331 -48 -42 0
-331 48 0
-331 42 0
332 -331 -776 0
-332 331 0
-332 776 0
333 -840 -330 0
-333 840 0
-333 330 0
334 -837 -4 0
-334 837 0
-334 4 0
335 -334 -9 0
-335 334 0
-335 9 0
336 -841 -333 0
-336 841 0
-336 333 0
337 -836 -10 0
-337 836 0
-337 10 0
338 -337 -720 0
-338 337 0
-338 720 0
339 -842 -336 0
-339 842 0
-339 336 0
340 -6 -750 0
-340 6 0
-340 750 0
341 -340 -734 0
-341 340 0
-341 734 0
342 -843 -339 0
-342 843 0
-342 339 0
343 -49 -722 0
-343 49 0
-343 722 0
344 -343 -751 0
-344 343 0
-344 751 0
345 -844 -342 0
-345 844 0
-345 342 0
346 -48 -720 0
-346 48 0
-346 720 0
347 -346 -38 0
-347 346 0
-347 38 0
348 -845 -345 0
-348 845 0
-348 345 0
349 -22 -716 0
-349 22 0
-349 716 0
350 -349 -16 0
-350 349 0
-350 16 0
351 -846 -348 0
-351 846 0
-351 348 0
352 -847 -821 0
-352 847 0
-352 821 0
353 -352 -729 0
-353 352 0
-353 729 0
354 -848 -351 0
-354 848 0
-354 351 0
355 -22 -750 0
-355 22 0
-355 750 0
356 -355 -826 0
-356 355 0
-356 826 0
357 -849 -354 0
-357 849 0
-357 354 0
358 -731 -794 0
-358 731 0
-358 794 0
359 -358 -765 0
-359 358 0
-359 765 0
360 -850 -357 0
-360 850 0
-360 357 0
361 -728 -9 0
-361 728 0
-361 9 0
362 -361 -826 0
-362 361 0
-362 826 0
363 -851 -360 0
-363 851 0
-363 360 0
364 -736 -750 0
-364 736 0
-364 750 0
365 -364 -724 0
-365 364 0
-365 724 0
366 -852 -363 0
-366 852 0
-366 363 0
367 -770 -753 0
-367 770 0
-367 753 0
368 -367 -765 0
-368 367 0
-368 765 0
369 -853 -366 0
-369 853 0
-369 366 0
370 -9 -3 0
-370 9 0
-370 3 0
371 -370 -709 0
-371 370 0
-371 709 0
372 -854 -369 0
-372 854 0
-372 369 0
373 -41 -734 0
-373 41 0
-373 734 0
374 -373 -43 0
-374 373 0
-374 43 0
375 -855 -372 0
-375 855 0
-375 372 0
376 -770 -720 0
-376 770 0
-376 720 0
377 -376 -776 0
-377 376 0
-377 776 0
378 -856 -375 0
-378 856 0
-378 375 0
379 -31 -762 0
-379 31 0
-379 762 0
380 -379 -722 0
-380 379 0
-380 722 0
381 -857 -378 0
-381 857 0
-381 378 0
382 -8 -762 0
-382 8 0
-382 762 0
383 -382 -770 0
-383 382 0
-383 770 0
384 -858 -381 0
-384 858 0
-384 381 0
385 -50 -34 0
-385 50 0
-385 34 0
386 -385 -704 0
-386 385 0
-386 704 0
387 -859 -384 0
-387 859 0
-387 384 0
388 -724 -821 0
-388 724 0
-388 821 0
389 -388 -711 0
-389 388 0
-389 711 0
390 -860 -387 0
-390 860 0
-390 387 0
391 -44 -24 0
-391 44 0
-391 24 0
392 -391 -35 0
-392 391 0
-392 35 0
393 -861 -390 0
-393 861 0
-393 390 0
394 -740 -736 0
-394 740 0
-394 736 0
395 -394 -742 0
-395 394 0
-395 742 0
396 -862 -393 0
-396 862 0
-396 393 0
397 -713 -8 0
-397 713 0
-397 8 0
398 -397 -31 0
-398 397 0
-398 31 0
399 -863 -396 0
-399 863 0
-399 396 0
400 -821 -700 0
-400 821 0
-400 700 0
401 -400 -38 0
-401 400 0
-401 38 0
402 -864 -399 0
-402 864 0
-402 399 0
403 -770 -28 0
-403 770 0
-403 28 0
404 -403 -765 0
-404 403 0
-404 765 0
405 -865 -402 0
-405 865 0
-405 402 0
406 -44 -9 0
-406 44 0
-406 9 0
407 -406 -866 0
-407 406 0
-407 866 0
408 -867 -405 0
-408 867 0
-408 405 0
409 -26 -8 0
-409 26 0
-409 8 0
410 -409 -765 0
-410 409 0
-410 765 0
411 -868 -408 0
-411 868 0
-411 408 0
412 -774 -718 0
-412 774 0
-412 718 0
413 -412 -19 0
-413 412 0
-413 19 0
414 -869 -411 0
-414 869 0
-414 411 0
415 -34 -733 0
-415 34 0
-415 733 0
416 -415 -18 0
-416 415 0
-416 18 0
417 -870 -414 0
-417 870 0
-417 414 0
418 -18 -7 0
-418 18 0
-418 7 0
419 -418 -27 0
-419 418 0
-419 27 0
420 -871 -417 0
-420 871 0
-420 417 0
421 -847 -736 0
-421 847 0
-421 736 0
422 -421 -724 0
-422 421 0
-422 724 0
423 -872 -420 0
-423 872 0
-423 420 0
424 -18 -714 0
-424 18 0
-424 714 0
425 -424 -718 0
-425 424 0
-425 718 0
426 -873 -423 0
-426 873 0
-426 423 0
427 -33 -719 0
-427 33 0
-427 719 0
428 -427 -729 0
-428 427 0
-428 729 0
429 -874 -426 0
-429 874 0
-429 426 0
430 -734 -28 0
-430 734 0
-430 28 0
431 -430 -43 0
-431 430 0
-431 43 0
432 -875 -429 0
-432 875 0
-432 429 0
433 -704 -6 0
-433 704 0
-433 6 0
434 -433 -876 0
-434 433 0
-434 876 0
435 -877 -432 0
-435 877 0
-435 432 0
436 -14 -821 0
-436 14 0
-436 821 0
437 -436 -32 0
-437 436 0
-437 32 0
438 -878 -435 0
-438 878 0
-438 435 0
439 -740 -746 0
-439 740 0
-439 746 0
440 -439 -765 0
-440 439 0
-440 765 0
441 -879 -438 0
-441 879 0
-441 438 0
442 -740 -1 0
-442 740 0
-442 1 0
443 -442 -48 0
-443 442 0
-443 48 0
444 -880 -441 0
-444 880 0
-444 441 0
445 -785 -719 0
-445 785 0
-445 719 0
446 -445 -774 0
-446 445 0
-446 774 0
447 -881 -444 0
-447 881 0
-447 444 0
448 -27 -762 0
-448 27 0
-448 762 0
449 -448 -776 0
-449 448 0
-449 776 0
450 -882 -447 0
-450 882 0
-450 447 0
451 -17 -701 0
-451 17 0
-451 701 0
452 -451 -728 0
-452 451 0
-452 728 0
453 -883 -450 0
-453 883 0
-453 450 0
454 -719 -15 0
-454 719 0
-454 15 0
455 -454 -722 0
-455 454 0
-455 722 0
456 -884 -453 0
-456 884 0
-456 453 0
457 -34 -724 0
-457 34 0
-457 724 0
458 -457 -42 0
-458 457 0
-458 42 0
459 -885 -456 0
-459 885 0
-459 456 0
460 -41 -837 0
-460 41 0
-460 837 0
461 -460 -774 0
-461 460 0
-461 774 0
462 -886 -459 0
-462 886 0
-462 459 0
463 -33 -25 0
-463 33 0
-463 25 0
464 -463 -763 0
-464 463 0
-464 763 0
465 -887 -462 0
-465 887 0
-465 462 0
466 -23 -704 0
-466 23 0
-466 704 0
467 -466 -35 0
-467 466 0
-467 35 0
468 -888 -465 0
-468 888 0
-468 465 0
469 -34 -25 0
-469 34 0
-469 25 0
470 -469 -738 0
-470 469 0
-470 738 0
471 -889 -468 0
-471 889 0
-471 468 0
472 -757 -837 0
-472 757 0
-472 837 0
473 -472 -16 0
-473 472 0
-473 16 0
474 -890 -471 0
-474 890 0
-474 471 0
475 -40 -736 0
-475 40 0
-475 736 0
476 -475 -765 0
-476 475 0
-476 765 0
477 -891 -474 0
-477 891 0
-477 474 0
478 -714 -821 0
-478 714 0
-478 821 0
479 -478 -734 0
-479 478 0
-479 734 0
480 -892 -477 0
-480 892 0
-480 477 0
481 -50 -6 0
-481 50 0
-481 6 0
482 -481 -47 0
-482 481 0
-482 47 0
483 -893 -480 0
-483 893 0
-483 480 0
484 -24 -6 0
-484 24 0
-484 6 0
485 -484 -23 0
-485 484 0
-485 23 0
486 -894 -483 0
-486 894 0
-486 483 0
487 -753 -821 0
-487 753 0
-487 821 0
488 -487 -776 0
-488 487 0
-488 776 0
489 -895 -486 0
-489 895 0
-489 486 0
490 -44 -699 0
-490 44 0
-490 699 0
491 -490 -821 0
-491 490 0
-491 821 0
492 -896 -489 0
-492 896 0
-492 489 0
493 -820 -706 0
-493 820 0
-493 706 0
494 -493 -43 0
-494 493 0
-494 43 0
495 -897 -492 0
-495 897 0
-495 492 0
496 -46 -718 0
-496 46 0
-496 718 0
497 -496 -47 0
-497 496 0
-497 47 0
498 -898 -495 0
-498 898 0
-498 495 0
499 -30 -3 0
-499 30 0
-499 3 0
500 -499 -16 0
-500 499 0
-500 16 0
501 -899 -498 0
-501 899 0
-501 498 0
502 -33 -713 0
-502 33 0
-502 713 0
503 -502 -711 0
-503 502 0
-503 711 0
504 -900 -501 0
-504 900 0
-504 501 0
505 -794 -18 0
-505 794 0
-505 18 0
506 -505 -41 0
-506 505 0
-506 41 0
507 -901 -504 0
-507 901 0
-507 504 0
508 -7 -699 0
-508 7 0
-508 699 0
509 -508 -713 0
-509 508 0
-509 713 0
510 -902 -507 0
-510 902 0
-510 507 0
511 -810 -7 0
-511 810 0
-511 7 0
512 -511 -876 0
-512 511 0
-512 876 0
513 -903 -510 0
-513 903 0
-513 510 0
514 -706 -700 0
-514 706 0
-514 700 0
515 -514 -727 0
-515 514 0
-515 727 0
516 -904 -513 0
-516 904 0
-516 513 0
517 -40 -10 0
-517 40 0
-517 10 0
518 -517 -729 0
-518 517 0
-518 729 0
519 -905 -516 0
-519 905 0
-519 516 0
520 -26 -25 0
-520 26 0
-520 25 0
521 -520 -720 0
-521 520 0
-521 720 0
522 -906 -519 0
-522 906 0
-522 519 0
523 -733 -17 0
-523 733 0
-523 17 0
524 -523 -826 0
-524 523 0
-524 826 0
525 -907 -522 0
-525 907 0
-525 522 0
526 -22 -14 0
-526 22 0
-526 14 0
527 -526 -30 0
-527 526 0
-527 30 0
528 -908 -525 0
-528 908 0
-528 525 0
529 -21 -9 0
-529 21 0
-529 9 0
530 -529 -876 0
-530 529 0
-530 876 0
531 -909 -528 0
-531 909 0
-531 528 0
532 -820 -847 0
-532 820 0
-532 847 0
533 -532 -43 0
-533 532 0
-533 43 0
534 -910 -531 0
-534 910 0
-534 531 0
535 -50 -750 0
-535 50 0
-535 750 0
536 -535 -763 0
-536 535 0
-536 763 0
537 -911 -534 0
-537 911 0
-537 534 0
538 -34 -794 0
-538 34 0
-538 794 0
539 -538 -776 0
-539 538 0
-539 776 0
540 -912 -537 0
-540 912 0
-540 537 0
541 -734 -713 0
-541 734 0
-541 713 0
542 -541 -29 0
-542 541 0
-542 29 0
543 -913 -540 0
-543 913 0
-543 540 0
544 -22 -9 0
-544 22 0
-544 9 0
545 -544 -757 0
-545 544 0
-545 757 0
546 -914 -543 0
-546 914 0
-546 543 0
547 -714 -5 0
-547 714 0
-547 5 0
548 -547 -727 0
-548 547 0
-548 727 0
549 -915 -546 0
-549 915 0
-549 546 0
550 -5 -699 0
-550 5 0
-550 699 0
551 -550 -19 0
-551 550 0
-551 19 0
552 -916 -549 0
-552 916 0
-552 549 0
553 -810 -719 0
-553 810 0
-553 719 0
554 -553 -29 0
-554 553 0
-554 29 0
555 -917 -552 0
-555 917 0
-555 552 0
556 -15 -700 0
-556 15 0
-556 700 0
557 -556 -742 0
-557 556 0
-557 742 0
558 -918 -555 0
-558 918 0
-558 555 0
559 -48 -876 0
-559 48 0
-559 876 0
560 -559 -797 0
-560 559 0
-560 797 0
561 -919 -558 0
-561 919 0
-561 558 0
562 -33 -722 0
-562 33 0
-562 722 0
563 -562 -765 0
-563 562 0
-563 765 0
564 -920 -561 0
-564 920 0
-564 561 0
565 -15 -10 0
-565 15 0
-565 10 0
566 -565 -776 0
-566 565 0
-566 776 0
567 -921 -564 0
-567 921 0
-567 564 0
568 -45 -718 0
-568 45 0
-568 718 0
569 -568 -742 0
-569 568 0
-569 742 0
570 -922 -567 0
-570 922 0
-570 567 0
571 -21 -8 0
-571 21 0
-571 8 0
572 -571 -30 0
-572 571 0
-572 30 0
573 -923 -570 0
-573 923 0
-573 570 0
574 -847 -24 0
-574 847 0
-574 24 0
575 -574 -22 0
-575 574 0
-575 22 0
576 -924 -573 0
-576 924 0
-576 573 0
577 -34 -2 0
-577 34 0
-577 2 0
578 -577 -44 0
-578 577 0
-578 44 0
579 -925 -576 0
-579 925 0
-579 576 0
580 -724 -720 0
-580 724 0
-580 720 0
581 -580 -39 0
-581 580 0
-581 39 0
582 -926 -579 0
-582 926 0
-582 579 0
583 -49 -6 0
-583 49 0
-583 6 0
584 -583 -700 0
-584 583 0
-584 700 0
585 -927 -582 0
-585 927 0
-585 582 0
586 -728 -821 0
-586 728 0
-586 821 0
587 -586 -742 0
-587 586 0
-587 742 0
588 -928 -585 0
-588 928 0
-588 585 0
589 -20 -10 0
-589 20 0
-589 10 0
590 -589 -797 0
-590 589 0
-590 797 0
591 -929 -588 0
-591 929 0
-591 588 0
592 -37 -9 0
-592 37 0
-592 9 0
593 -592 -724 0
-593 592 0
-593 724 0
594 -930 -591 0
-594 930 0
-594 591 0
595 -113 -12 0
-595 113 0
-595 12 0
596 -931 -594 0
-596 931 0
-596 594 0
597 -820 -4 0
-597 820 0
-597 4 0
598 -597 -709 0
-598 597 0
-598 709 0
599 -932 -596 0
-599 932 0
-599 596 0
600 -44 -28 0
-600 44 0
-600 28 0
601 -600 -32 0
-601 600 0
-601 32 0
602 -933 -599 0
-602 933 0
-602 599 0
603 -37 -704 0
-603 37 0
-603 704 0
604 -603 -11 0
-604 603 0
-604 11 0
605 -934 -602 0
-605 934 0
-605 602 0
606 -731 -2 0
-606 731 0
-606 2 0
607 -606 -39 0
-607 606 0
-607 39 0
608 -935 -605 0
-608 935 0
-608 605 0
609 -866 -7 0
-609 866 0
-609 7 0
610 -609 -19 0
-610 609 0
-610 19 0
611 -936 -608 0
-611 936 0
-611 608 0
612 -40 -36 0
-612 40 0
-612 36 0
613 -612 -32 0
-613 612 0
-613 32 0
614 -937 -611 0
-614 937 0
-614 611 0
615 -770 -20 0
-615 770 0
-615 20 0
616 -615 -876 0
-616 615 0
-616 876 0
617 -938 -614 0
-617 938 0
-617 614 0
618 -41 -714 0
-618 41 0
-618 714 0
619 -618 -738 0
-619 618 0
-619 738 0
620 -939 -617 0
-620 939 0
-620 617 0
621 -50 -49 0
-621 50 0
-621 49 0
622 -621 -19 0
-622 621 0
-622 19 0
623 -940 -620 0
-623 940 0
-623 620 0
624 -158 -29 0
-624 158 0
-624 29 0
625 -941 -623 0
-625 941 0
-625 623 0
626 -34 -720 0
-626 34 0
-626 720 0
627 -626 -797 0
-627 626 0
-627 797 0
628 -942 -625 0
-628 942 0
-628 625 0
629 -571 -42 0
-629 571 0
-629 42 0
630 -943 -628 0
-630 943 0
-630 628 0
631 -322 -41 0
-631 322 0
-631 41 0
632 -944 -630 0
-632 944 0
-632 630 0
633 -37 -3 0
-633 37 0
-633 3 0
634 -633 -738 0
-634 633 0
-634 738 0
635 -945 -632 0
-635 945 0
-635 632 0
636 -820 -770 0
-636 820 0
-636 770 0
637 -636 -763 0
-637 636 0
-637 763 0
638 -946 -635 0
-638 946 0
-638 635 0
639 -20 -699 0
-639 20 0
-639 699 0
640 -639 -738 0
-640 639 0
-640 738 0
641 -947 -638 0
-641 947 0
-641 638 0
642 -17 -5 0
-642 17 0
-642 5 0
643 -642 -709 0
-643 642 0
-643 709 0
644 -948 -641 0
-644 948 0
-644 641 0
645 -810 -770 0
-645 810 0
-645 770 0
646 -645 -738 0
-646 645 0
-646 738 0
647 -949 -644 0
-647 949 0
-647 644 0
648 -740 -10 0
-648 740 0
-648 10 0
649 -648 -727 0
-649 648 0
-649 727 0
650 -950 -647 0
-650 950 0
-650 647 0
651 -776 -706 0
-651 776 0
-651 706 0
652 -651 -32 0
-652 651 0
-652 32 0
653 -951 -650 0
-653 951 0
-653 650 0
654 -44 -13 0
-654 44 0
-654 13 0
655 -654 -751 0
-655 654 0
-655 751 0
656 -952 -653 0
-656 952 0
-656 653 0
657 -826 -714 0
-657 826 0
-657 714 0
658 -657 -30 0
-658 657 0
-658 30 0
659 -953 -656 0
-659 953 0
-659 656 0
660 -820 -762 0
-660 820 0
-660 762 0
661 -660 -826 0
-661 660 0
-661 826 0
662 -954 -659 0
-662 954 0
-662 659 0
663 -31 -704 0
-663 31 0
-663 704 0
664 -663 -729 0
-664 663 0
-664 729 0
665 -955 -662 0
-665 955 0
-665 662 0
666 -34 -705 0
-666 34 0
-666 705 0
667 -666 -704 0
-667 666 0
-667 704 0
668 -956 -665 0
-668 956 0
-668 665 0
669 -39 -720 0
-669 39 0
-669 720 0
670 -669 -711 0
-670 669 0
-670 711 0
671 -957 -668 0
-671 957 0
-671 668 0
672 -716 -837 0
-672 716 0
-672 837 0
673 -672 -719 0
-673 672 0
-673 719 0
674 -958 -671 0
-674 958 0
-674 671 0
675 -820 -699 0
-675 820 0
-675 699 0
676 -675 -21 0
-676 675 0
-676 21 0
677 -959 -674 0
-677 959 0
-677 674 0
678 -836 -751 0
-678 836 0
-678 751 0
679 -678 -826 0
-679 678 0
-679 826 0
680 -960 -677 0
-680 960 0
-680 677 0
681 -42 -728 0
-681 42 0
-681 728 0
682 -681 -3 0
-682 681 0
-682 3 0
683 -961 -680 0
-683 961 0
-683 680 0
684 -48 -1 0
-684 48 0
-684 1 0
685 -684 -19 0
-685 684 0
-685 19 0
686 -962 -683 0
-686 962 0
-686 683 0
687 -820 -740 0
-687 820 0
-687 740 0
688 -687 -837 0
-688 687 0
-688 837 0
689 -963 -686 0
-689 963 0
-689 686 0
690 -44 -31 0
-690 44 0
-690 31 0
691 -690 -48 0
-691 690 0
-691 48 0
692 -964 -689 0
-692 964 0
-692 689 0
693 -776 -836 0
-693 776 0
-693 836 0
694 -693 -731 0
-694 693 0
-694 731 0
695 -965 -692 0
-695 965 0
-695 692 0
696 -734 -14 0
-696 734 0
-696 14 0
697 -696 -729 0
-697 696 0
-697 729 0
698 -966 -695 0
-698 966 0
-698 695 0
-699 -2 0
699 2 0
-700 -3 0
700 3 0
-701 -5 0
701 5 0
-702 -54 0
702 54 0
-703 -52 0
703 52 0
-704 -8 0
704 8 0
-705 -7 0
705 7 0
-706 -9 0
706 9 0
-707 -57 0
707 57 0
-708 -60 0
708 60 0
-709 -13 0
709 13 0
-710 -63 0
710 63 0
-711 -16 0
711 16 0
-712 -66 0
712 66 0
-713 -18 0
713 18 0
-714 -17 0
714 17 0
-715 -69 0
715 69 0
-716 -20 0
716 20 0
-717 -72 0
717 72 0
-718 -22 0
718 22 0
-719 -21 0
719 21 0
-720 -23 0
720 23 0
-721 -75 0
721 75 0
-722 -26 0
722 26 0
-723 -78 0
723 78 0
-724 -27 0
724 27 0
-725 -81 0
725 81 0
-726 -84 0
726 84 0
-727 -29 0
727 29 0
-728 -28 0
728 28 0
-729 -30 0
729 30 0
-730 -87 0
730 87 0
-731 -32 0
731 32 0
-732 -90 0
732 90 0
-733 -24 0
733 24 0
-734 -33 0
734 33 0
-735 -93 0
735 93 0
-736 -34 0
736 34 0
-737 -96 0
737 96 0
-738 -36 0
738 36 0
-739 -99 0
739 99 0
-740 -37 0
740 37 0
-741 -102 0
741 102 0
-742 -39 0
742 39 0
-743 -105 0
743 105 0
-744 -108 0
744 108 0
-745 -111 0
745 111 0
-746 -15 0
746 15 0
-747 -114 0
747 114 0
-748 -117 0
748 117 0
-749 -120 0
749 120 0
-750 -4 0
750 4 0
-751 -11 0
751 11 0
-752 -123 0
752 123 0
-753 -35 0
753 35 0
-754 -126 0
754 126 0
-755 -129 0
755 129 0
-756 -132 0
756 132 0
-757 -19 0
757 19 0
-758 -135 0
758 135 0
-759 -42 0
759 42 0
-760 -138 0
760 138 0
-761 -141 0
761 141 0
-762 -1 0
762 1 0
-763 -43 0
763 43 0
-764 -144 0
764 144 0
-765 -38 0
765 38 0
-766 -147 0
766 147 0
-767 -150 0
767 150 0
-768 -153 0
768 153 0
-769 -156 0
769 156 0
-770 -44 0
770 44 0
-771 -159 0
771 159 0
-772 -162 0
772 162 0
-773 -165 0
773 165 0
-774 -46 0
774 46 0
-775 -168 0
775 168 0
-776 -14 0
776 14 0
-777 -171 0
777 171 0
-778 -174 0
778 174 0
-779 -177 0
779 177 0
-780 -180 0
780 180 0
-781 -183 0
781 183 0
-782 -186 0
782 186 0
-783 -189 0
783 189 0
-784 -192 0
784 192 0
-785 -31 0
785 31 0
-786 -195 0
786 195 0
-787 -198 0
787 198 0
-788 -201 0
788 201 0
-789 -204 0
789 204 0
-790 -207 0
790 207 0
-791 -210 0
791 210 0
-792 -213 0
792 213 0
-793 -216 0
793 216 0
-794 -25 0
794 25 0
-795 -219 0
795 219 0
-796 -222 0
796 222 0
-797 -45 0
797 45 0
-798 -225 0
798 225 0
-799 -228 0
799 228 0
-800 -231 0
800 231 0
-801 -234 0
801 234 0
-802 -237 0
802 237 0
-803 -240 0
803 240 0
-804 -243 0
804 243 0
-805 -246 0
805 246 0
-806 -249 0
806 249 0
-807 -252 0
807 252 0
-808 -255 0
808 255 0
-809 -257 0
809 257 0
-810 -49 0
810 49 0
-811 -260 0
811 260 0
-812 -263 0
812 263 0
-813 -266 0
813 266 0
-814 -269 0
814 269 0
-815 -272 0
815 272 0
-816 -275 0
816 275 0
-817 -278 0
817 278 0
-818 -281 0
818 281 0
-819 -284 0
819 284 0
-820 -50 0
820 50 0
-821 -6 0
821 6 0
-822 -287 0
822 287 0
-823 -290 0
823 290 0
-824 -293 0
824 293 0
-825 -296 0
825 296 0
-826 -47 0
826 47 0
-827 -299 0
827 299 0
-828 -302 0
828 302 0
-829 -305 0
829 305 0
-830 -308 0
830 308 0
-831 -311 0
831 311 0
-832 -314 0
832 314 0
-833 -317 0
833 317 0
-834 -320 0
834 320 0
-835 -323 0
835 323 0
-836 -12 0
836 12 0
-837 -10 0
837 10 0
-838 -326 0
838 326 0
-839 -329 0
839 329 0
-840 -332 0
840 332 0
-841 -335 0
841 335 0
-842 -338 0
842 338 0
-843 -341 0
843 341 0
-844 -344 0
844 344 0
-845 -347 0
845 347 0
-846 -350 0
846 350 0
-847 -40 0
847 40 0
-848 -353 0
848 353 0
-849 -356 0
849 356 0
-850 -359 0
850 359 0
-851 -362 0
851 362 0
-852 -365 0
852 365 0
-853 -368 0
853 368 0
-854 -371 0
854 371 0
-855 -374 0
855 374 0
-856 -377 0
856 377 0
-857 -380 0
857 380 0
-858 -383 0
858 383 0
-859 -386 0
859 386 0
-860 -389 0
860 389 0
-861 -392 0
861 392 0
-862 -395 0
862 395 0
-863 -398 0
863 398 0
-864 -401 0
864 401 0
-865 -404 0
865 404 0
-866 -48 0
866 48 0
-867 -407 0
867 407 0
-868 -410 0
868 410 0
-869 -413 0
869 413 0
-870 -416 0
870 416 0
-871 -419 0
871 419 0
-872 -422 0
872 422 0
-873 -425 0
873 425 0
-874 -428 0
874 428 0
-875 -431 0
875 431 0
-876 -41 0
876 41 0
-877 -434 0
877 434 0
-878 -437 0
878 437 0
-879 -440 0
879 440 0
-880 -443 0
880 443 0
-881 -446 0
881 446 0
-882 -449 0
882 449 0
-883 -452 0
883 452 0
-884 -455 0
884 455 0
-885 -458 0
885 458 0
-886 -461 0
886 461 0
-887 -464 0
887 464 0
-888 -467 0
888 467 0
-889 -470 0
889 470 0
-890 -473 0
890 473 0
-891 -476 0
891 476 0
-892 -479 0
892 479 0
-893 -482 0
893 482 0
-894 -485 0
894 485 0
-895 -488 0
895 488 0
-896 -491 0
896 491 0
-897 -494 0
897 494 0
-898 -497 0
898 497 0
-899 -500 0
899 500 0
-900 -503 0
900 503 0
-901 -506 0
901 506 0
-902 -509 0
902 509 0
-903 -512 0
903 512 0
-904 -515 0
904 515 0
-905 -518 0
905 518 0
-906 -521 0
906 521 0
-907 -524 0
907 524 0
-908 -527 0
908 527 0
-909 -530 0
909 530 0
-910 -533 0
910 533 0
-911 -536 0
911 536 0
-912 -539 0
912 539 0
-913 -542 0
913 542 0
-914 -545 0
914 545 0
-915 -548 0
915 548 0
-916 -551 0
916 551 0
-917 -554 0
917 554 0
-918 -557 0
918 557 0
-919 -560 0
919 560 0
-920 -563 0
920 563 0
-921 -566 0
921 566 0
-922 -569 0
922 569 0
-923 -572 0
923 572 0
-924 -575 0
924 575 0
-925 -578 0
925 578 0
-926 -581 0
926 581 0
-927 -584 0
927 584 0
-928 -587 0
928 587 0
-929 -590 0
929 590 0
-930 -593 0
930 593 0
-931 -595 0
931 595 0
-932 -598 0
932 598 0
-933 -601 0
933 601 0
-934 -604 0
934 604 0
-935 -607 0
935 607 0
-936 -610 0
936 610 0
-937 -613 0
937 613 0
-938 -616 0
938 616 0
-939 -619 0
939 619 0
-940 -622 0
940 622 0
-941 -624 0
941 624 0
-942 -627 0
942 627 0
-943 -629 0
943 629 0
-944 -631 0
944 631 0
-945 -634 0
945 634 0
-946 -637 0
946 637 0
-947 -640 0
947 640 0
-948 -643 0
948 643 0
-949 -646 0
949 646 0
-950 -649 0
950 649 0
-951 -652 0
951 652 0
-952 -655 0
952 655 0
-953 -658 0
953 658 0
-954 -661 0
954 661 0
-955 -664 0
955 664 0
-956 -667 0
956 667 0
-957 -670 0
957 670 0
-958 -673 0
958 673 0
-959 -676 0
959 676 0
-960 -679 0
960 679 0
-961 -682 0
961 682 0
-962 -685 0
962 685 0
-963 -688 0
963 688 0
-964 -691 0
964 691 0
-965 -694 0
965 694 0
-966 -697 0
966 697 0
698 0
